% tiny instance for the model that minimizes the makespan

% http://www.webgraphviz.com/
% digraph G {
%   "0" -> "1"
%   "0" -> "2"
%   "1" -> "3"
%   "1" -> "4"
%   "2" -> "3"
%   "2" -> "4"
% }


N_JOBS = 5;
N_EDGES = 6;
N_CORES = 2;

% this is the job (line) duration on each core (col)
d = [| 10, 7
     | 3, 1
     | 3, 1
     | 1, 2 
     | 1, 2 |];

% from: the leaving node for each edge
% to: the entering node for each edge

% list of edges indicating which nodes are connected
% e =  [| to_enum(JOB,0), to_enum(JOB,1)
%       | to_enum(JOB,0), to_enum(JOB,2)
%       | to_enum(JOB,1), to_enum(JOB,3)
%       | to_enum(JOB,1), to_enum(JOB,4)
%       | to_enum(JOB,2), to_enum(JOB,3)
%       | to_enum(JOB,2), to_enum(JOB,4) |]; 

e =  [| 1, 2
      | 1, 3
      | 2, 4
      | 2, 5
      | 3, 4
      | 3, 5 |]; 